(set-logic ALL)
(declare-fun var0 () String)
(assert (str.in_re var0 (re.++ (re.* (re.+ (str.to_re "0"))) (re.++ (re.* (re.* (str.to_re "111"))) (re.++ (re.+ (re.+ (str.to_re "222"))) (re.++ (re.+ (re.+ (str.to_re "33"))) (re.++ (re.* (re.+ (str.to_re "44"))) (re.++ (re.union (re.union (str.to_re "555") (str.to_re "666")) (re.union (str.to_re "7") (str.to_re "888"))) (re.++ (re.+ (re.* (str.to_re "99"))) (re.++ (re.union (re.+ (str.to_re "aaa")) (re.+ (str.to_re "b"))) (re.++ (re.* (re.union (str.to_re "c") (str.to_re "dd"))) (re.+ (re.* (str.to_re "e"))))))))))))))
(assert (<= 426 (str.len var0)))
(check-sat)